letting n =  10
letting blocks =  [[1, 3], [2, 1], [2, 2], [2, 3], [2, 5], [2, 8], [3, 1], [3, 3], [3, 5], [3, 6], [3, 7], [3, 9], [4, 1], [4, 9], [4, 10], [5, 2], [5, 4], [5, 6], [5, 8], [6, 5], [6, 6], [6, 7], [6, 10], [7, 2], [7, 3], [7, 10], [8, 1], [8, 7], [9, 3], [9, 8], [10, 4], [10, 6], [10, 8], [10, 9]]
